c FILE: i160-103

c SOURCE: From steinlib

c DESCRIPTION: Steinlib instance with 160 nodes and 240 edges.

p edge 160 240
e 1 28
e 1 55
e 1 86
e 1 98
e 1 102
e 2 16
e 2 37
e 2 100
e 2 115
e 3 63
e 3 119
e 4 49
e 4 138
e 5 28
e 6 84
e 6 115
e 6 150
e 7 23
e 7 74
e 7 108
e 8 49
e 9 82
e 9 101
e 10 121
e 10 122
e 11 18
e 11 26
e 11 32
e 11 127
e 12 71
e 13 129
e 13 160
e 14 35
e 14 75
e 14 116
e 15 66
e 15 102
e 16 18
e 16 57
e 16 58
e 16 93
e 17 25
e 18 24
e 18 54
e 19 76
e 19 102
e 19 150
e 20 56
e 20 63
e 20 88
e 21 157
e 22 66
e 25 57
e 25 62
e 25 65
e 26 48
e 26 70
e 26 73
e 27 83
e 28 44
e 28 56
e 28 57
e 28 90
e 28 127
e 28 145
e 29 30
e 29 39
e 29 81
e 29 99
e 30 43
e 30 98
e 30 141
e 31 91
e 31 114
e 31 123
e 32 85
e 32 110
e 33 119
e 33 127
e 34 107
e 35 155
e 36 94
e 37 61
e 38 53
e 38 63
e 38 121
e 39 76
e 40 64
e 40 151
e 40 152
e 40 153
e 41 57
e 41 59
e 41 112
e 42 97
e 42 133
e 42 138
e 43 152
e 44 50
e 44 81
e 45 66
e 45 148
e 46 56
e 46 103
e 47 96
e 47 98
e 47 102
e 47 117
e 47 156
e 48 109
e 48 143
e 49 58
e 49 59
e 49 84
e 49 91
e 49 105
e 50 51
e 50 91
e 51 52
e 51 125
e 51 137
e 52 80
e 54 113
e 54 116
e 54 138
e 55 81
e 55 88
e 55 106
e 56 132
e 56 144
e 57 80
e 57 145
e 57 157
e 59 81
e 59 156
e 60 72
e 60 91
e 60 121
e 60 131
e 60 138
e 62 68
e 62 94
e 62 132
e 62 135
e 63 150
e 65 91
e 65 123
e 66 75
e 66 81
e 66 85
e 67 110
e 67 151
e 69 141
e 71 159
e 72 130
e 73 92
e 74 82
e 74 87
e 74 127
e 74 151
e 74 153
e 75 80
e 75 89
e 75 118
e 77 157
e 78 100
e 78 106
e 79 127
e 80 157
e 81 137
e 82 113
e 83 108
e 83 121
e 84 116
e 84 123
e 84 126
e 85 94
e 86 95
e 86 143
e 87 97
e 88 148
e 89 92
e 89 104
e 89 114
e 90 125
e 91 160
e 92 127
e 93 120
e 93 128
e 94 139
e 95 153
e 97 134
e 97 144
e 99 146
e 100 114
e 100 116
e 102 112
e 102 116
e 102 132
e 102 152
e 102 154
e 104 117
e 104 153
e 105 124
e 106 144
e 107 117
e 107 155
e 108 139
e 108 159
e 111 124
e 111 133
e 113 136
e 114 134
e 115 122
e 115 125
e 116 132
e 117 147
e 118 150
e 118 156
e 119 134
e 120 126
e 120 146
e 121 127
e 122 145
e 123 130
e 124 134
e 125 131
e 126 142
e 127 133
e 127 134
e 127 136
e 133 140
e 135 158
e 136 141
e 136 148
e 136 157
e 141 156
e 143 144
e 147 154
e 149 156
